31 2000
5 163
6 177
4 161
7 146
11 146
3 177
9 163
2 167
6 109
2 134
5 157
11 150
11 149
6 134
9 176
7 167
9 157
7 112
7 161
3 109
10 153
3 16
10 150
3 150
3 176
4 153
11 100
2 100
8 112
11 149
5 150
